          13
          20
           1           3          15
           2           6           6
           3           6           6
           4           6           6
           5           1          13
           6           1          13
           7           7           8
           8           7           8
           9           5          18
          10           5          18
          11           5          18
          12           4          12
          13           3           8
